sat
(:max-memory         18.34
 :memory             18.14
 :nlsat-conflicts    2
 :nlsat-decisions    2
 :nlsat-propagations 30
 :nlsat-stages       7
 :num-allocs         95444
 :rlimit-count       35290
 :time               0.02
 :total-time         0.03)
